p cnf 14 64
-3 -7 -11 0
-1 -4 -8 0
-7 10 13 0
-2 -4 -6 0
4 -8 -10 0
3 5 -6 0
7 -8 -13 0
-7 9 10 0
-1 4 -14 0
5 11 -14 0
-3 -6 12 0
9 -11 14 0
-2 5 -7 0
-2 4 11 0
-4 5 14 0
-2 -3 -11 0
2 -10 12 0
2 -5 -10 0
1 -2 -9 0
-3 -5 -8 0
3 12 -13 0
-6 9 -11 0
2 -4 -6 0
-6 -13 -14 0
5 11 13 0
-10 11 -13 0
2 -5 9 0
-4 6 -8 0
-4 -12 -13 0
-7 8 -14 0
3 -11 -14 0
6 11 14 0
-2 -5 6 0
5 -6 -9 0
-4 8 -12 0
-11 -12 -13 0
-2 -10 -14 0
5 12 -13 0
-1 -7 14 0
3 -13 -14 0
-6 -8 12 0
-4 5 13 0
-5 10 14 0
-7 -10 -11 0
5 8 -10 0
-3 -9 11 0
2 3 12 0
-7 8 -13 0
-1 10 -13 0
-5 -6 -12 0
-1 -2 -3 0
2 6 -12 0
-5 7 -14 0
2 -8 -10 0
-4 6 11 0
-7 -8 11 0
-8 -10 -12 0
-3 4 -8 0
-7 -12 13 0
7 -10 -14 0
-8 9 -14 0
7 10 -13 0
-3 5 7 0
-4 -7 -13 0
